; ./seahorn/./sv_comp_flat_small/array-examples/standard_init4_true-unreach-call_ground.c.flat_000.smt2
(set-logic HORN)

(declare-fun |main_1| ( Int Int Int Int Int Int Int ) Bool)

(assert
  (forall ( (A Int) (B Int) (C Int) (D Int) (E Int) (F Int) (v_6 Int) ) 
    (=>
      (and
        (and true (= 0 v_6))
      )
      (main_1 v_6 A B C D E F)
    )
  )
)
(assert
  (forall ( (A Int) (B Int) (C Int) (D Int) (E Int) (F Int) (G Int) (H Int) (I Bool) (J Int) (K Bool) (L Bool) (M Int) (v_13 Int) (v_14 Int) ) 
    (=>
      (and
        (main_1 v_13 C D E F G H)
        (and (= 0 v_13)
     (or (= B M) (not L) (not I))
     (or (= M 0) (not L) (not I))
     (or (not K) (and I L))
     (= K true)
     (= A J)
     (= 1 v_14))
      )
      (main_1 v_14 C J E F G B)
    )
  )
)
(assert
  (forall ( (A Int) (B Bool) (C Int) (D Int) (E Int) (F Int) (G Int) (H Int) (I Int) (J Bool) (K Int) (L Int) (M Bool) (N Bool) (v_14 Int) (v_15 Int) ) 
    (=>
      (and
        (main_1 v_14 D E F G H I)
        (and (= 1 v_14)
     (= A (+ E (* 4 I)))
     (= L (+ 1 I))
     (or (= C K) (not N) (not J))
     (or (= K L) (not N) (not J))
     (or B (not N) (not J))
     (or (not M) (and J N))
     (= M true)
     (not (= (<= 100000 L) B))
     (= 1 v_15))
      )
      (main_1 v_15 D E F G H C)
    )
  )
)
(assert
  (forall ( (A Int) (B Int) (C Bool) (D Int) (E Int) (F Int) (G Int) (H Int) (I Int) (J Bool) (K Int) (L Bool) (M Bool) (N Bool) (O Bool) (P Int) (v_16 Int) (v_17 Int) ) 
    (=>
      (and
        (main_1 v_16 D E F G H I)
        (and (= 1 v_16)
     (= B (+ E (* 4 I)))
     (= K (+ 1 I))
     (or (not C) (not J) (not M))
     (or (= A P) (not O) (not L))
     (or (= P 0) (not O) (not L))
     (or (not N) (and L O))
     (or (not L) (and J M))
     (= N true)
     (not (= (<= 100000 K) C))
     (= 2 v_17))
      )
      (main_1 v_17 D E F G A I)
    )
  )
)
(assert
  (forall ( (A Int) (B Bool) (C Int) (D Int) (E Int) (F Int) (G Int) (H Int) (I Int) (J Bool) (K Int) (L Int) (M Bool) (N Bool) (v_14 Int) (v_15 Int) ) 
    (=>
      (and
        (main_1 v_14 D E F G H I)
        (and (= 2 v_14)
     (= A (+ E (* 4 H)))
     (= L (+ 1 H))
     (or (= C K) (not N) (not J))
     (or (= K L) (not N) (not J))
     (or B (not N) (not J))
     (or (not M) (and J N))
     (= M true)
     (not (= (<= 100000 L) B))
     (= 2 v_15))
      )
      (main_1 v_15 D E F G C I)
    )
  )
)
(assert
  (forall ( (A Int) (B Int) (C Bool) (D Int) (E Int) (F Int) (G Int) (H Int) (I Int) (J Bool) (K Int) (L Bool) (M Bool) (N Bool) (O Bool) (P Int) (v_16 Int) (v_17 Int) ) 
    (=>
      (and
        (main_1 v_16 D E F G H I)
        (and (= 2 v_16)
     (= B (+ E (* 4 H)))
     (= K (+ 1 H))
     (or (not C) (not J) (not M))
     (or (= A P) (not O) (not L))
     (or (= P 0) (not O) (not L))
     (or (not N) (and L O))
     (or (not L) (and J M))
     (= N true)
     (not (= (<= 100000 K) C))
     (= 3 v_17))
      )
      (main_1 v_17 D E F A H I)
    )
  )
)
(assert
  (forall ( (A Int) (B Bool) (C Int) (D Int) (E Int) (F Int) (G Int) (H Int) (I Int) (J Bool) (K Int) (L Int) (M Bool) (N Bool) (v_14 Int) (v_15 Int) ) 
    (=>
      (and
        (main_1 v_14 D E F G H I)
        (and (= 3 v_14)
     (= A (+ E (* 4 G)))
     (= L (+ 1 G))
     (or (= C K) (not N) (not J))
     (or (= K L) (not N) (not J))
     (or B (not N) (not J))
     (or (not M) (and J N))
     (= M true)
     (not (= (<= 100000 L) B))
     (= 3 v_15))
      )
      (main_1 v_15 D E F C H I)
    )
  )
)
(assert
  (forall ( (A Int) (B Int) (C Bool) (D Int) (E Int) (F Int) (G Int) (H Int) (I Int) (J Bool) (K Int) (L Bool) (M Bool) (N Bool) (O Bool) (P Int) (v_16 Int) (v_17 Int) ) 
    (=>
      (and
        (main_1 v_16 D E F G H I)
        (and (= 3 v_16)
     (= B (+ E (* 4 G)))
     (= K (+ 1 G))
     (or (not C) (not J) (not M))
     (or (= A P) (not O) (not L))
     (or (= P 0) (not O) (not L))
     (or (not N) (and L O))
     (or (not L) (and J M))
     (= N true)
     (not (= (<= 100000 K) C))
     (= 4 v_17))
      )
      (main_1 v_17 D E A G H I)
    )
  )
)
(assert
  (forall ( (A Int) (B Bool) (C Int) (D Int) (E Int) (F Int) (G Int) (H Int) (I Int) (J Bool) (K Int) (L Int) (M Bool) (N Bool) (v_14 Int) (v_15 Int) ) 
    (=>
      (and
        (main_1 v_14 D E F G H I)
        (and (= 4 v_14)
     (= A (+ E (* 4 F)))
     (= L (+ 1 F))
     (or (= C K) (not N) (not J))
     (or (= K L) (not N) (not J))
     (or B (not N) (not J))
     (or (not M) (and J N))
     (= M true)
     (not (= (<= 100000 L) B))
     (= 4 v_15))
      )
      (main_1 v_15 D E C G H I)
    )
  )
)
(assert
  (forall ( (A Int) (B Int) (C Bool) (D Int) (E Int) (F Int) (G Int) (H Int) (I Int) (J Bool) (K Int) (L Bool) (M Bool) (N Bool) (O Bool) (P Int) (v_16 Int) (v_17 Int) ) 
    (=>
      (and
        (main_1 v_16 D E F G H I)
        (and (= 4 v_16)
     (= B (+ E (* 4 F)))
     (= K (+ 1 F))
     (or (not C) (not J) (not M))
     (or (= A P) (not O) (not L))
     (or (= P 0) (not O) (not L))
     (or (not N) (and L O))
     (or (not L) (and J M))
     (= N true)
     (not (= (<= 100000 K) C))
     (= 5 v_17))
      )
      (main_1 v_17 A E F G H I)
    )
  )
)
(assert
  (forall ( (A Bool) (B Int) (C Int) (D Bool) (E Bool) (F Int) (G Int) (H Int) (I Int) (J Int) (K Int) (L Int) (M Bool) (N Int) (O Int) (P Bool) (Q Bool) (v_17 Int) (v_18 Int) ) 
    (=>
      (and
        (main_1 v_17 G H I J K L)
        (and (= 5 v_17)
     (= D (= C 45))
     (not (= D E))
     (= B (+ H (* 4 G)))
     (= O (+ 1 G))
     (or (= F N) (not Q) (not M))
     (or (= N O) (not Q) (not M))
     (or (not E) (not Q) (not M))
     (or (not P) (and M Q))
     (= A true)
     (= P true)
     (not (= (<= 100000 G) A))
     (= 5 v_18))
      )
      (main_1 v_18 F H I J K L)
    )
  )
)
(assert
  (forall ( (A Bool) (B Int) (C Int) (D Bool) (E Bool) (F Int) (G Int) (H Int) (I Int) (J Int) (K Int) (L Bool) (M Int) (N Bool) (O Bool) (v_15 Int) (v_16 Int) ) 
    (=>
      (and
        (main_1 v_15 F G H I J K)
        (and (= 5 v_15)
     (= D (= C 45))
     (not (= D E))
     (= B (+ G (* 4 F)))
     (= M (+ 1 F))
     (or (not O) (not L) E)
     (or (not N) (and O L))
     (= A true)
     (= N true)
     (not (= (<= 100000 F) A))
     (= 6 v_16))
      )
      (main_1 v_16 F G H I J K)
    )
  )
)
(assert
  (forall ( (A Int) (B Int) (C Int) (D Int) (E Int) (F Int) (v_6 Int) ) 
    (=>
      (and
        (main_1 v_6 A B C D E F)
        (= 6 v_6)
      )
      false
    )
  )
)

(check-sat)
(exit)
